c --- [ banner ] -------------------------------------------------------------
c 
c CaDiCaL Radically Simplified CDCL SAT Solver
c Copyright (c) 2016-2021 A. Biere, M. Fleury, N. Froleyks
c 
c Version 1.5.2 9c38a080b32c28d805e8e6ca21849856b0cda605
c g++ (Ubuntu 7.5.0-3ubuntu1~18.04) 7.5.0 -Wall -Wextra -O3 -DNDEBUG
c Wed Feb 16 23:15:36 EST 2022 Linux fac-vanhoeve01 5.4.0-99-generic x86_64
c 
c --- [ limit ] --------------------------------------------------------------
c 
c setting time limit to 600 seconds real time (due to '-t 600')
c setting conflict limit to 1000000000 conflicts (due to '1000000000')
c 
c --- [ parsing input ] ------------------------------------------------------
c 
c reading DIMACS file from 'ddfwcnfs/queen11_11.col_11.cnf'
c opening file to read 'ddfwcnfs/queen11_11.col_11.cnf'
c found 'p cnf 1331 18986' header
c parsed 18986 clauses in 0.01 seconds process time
c closing file 'ddfwcnfs/queen11_11.col_11.cnf'
c after reading 233396 bytes 0.2 MB
c 
c --- [ options ] ------------------------------------------------------------
c 
c all options are set to their default value
c 
c --- [ solving ] ------------------------------------------------------------
c 
c time measured in process time since initialization
c 
c  seconds  reductions  redundant  irredundant
c         MB    restarts       trail     variables
c          level   conflicts       glue       remaining
c 
c *  0.01  5  0 0   0    0    0  0% 0 18865 1210 91%
c {  0.01  5  0 0   0    0    0  0% 0 18865 1210 91%
c -  0.02  6  9 1   0  300  122 32% 7 18865 1210 91%
c -  0.04  6 10 2  56  900  418 31% 8 18865 1210 91%
c }  0.04  6 10 2  56 1002  471 31% 8 18865 1210 91%
c [  0.04  6  0 2  56 1002  471  0% 0 18865 1210 91%
c O  0.04  6  6 2  56 1003  472 31% 6 18865 1210 91%
c -  0.06  6 12 3  56 1801  805 31% 9 18865 1210 91%
c -  0.09  6 14 4  57 3001 1105 31% 10 18865 1210 91%
c ]  0.09  6 14 4  57 3002 1106 31% 10 18865 1210 91%
c {  0.09  6 10 4  57 3002 1106 31% 8 18865 1210 91%
c F  0.09  6 10 4  57 3006 1110 32% 8 18865 1210 91%
c -  0.13  6 10 5 153 4501 1257 32% 8 18865 1210 91%
c #  0.18  6 10 5 198 6008 2039 32% 8 18865 1210 91%
c -  0.19  6 10 6 237 6301 1496 33% 8 18865 1210 91%
c }  0.23  6 13 6 365 7002 2084 38% 9 18865 1210 91%
c [  0.23  6 14 6 365 7002 2084 31% 10 18865 1210 91%
c s  0.30  6 45 6 366 7926 2580 47% 14 18865 1210 91%
c e  0.35  7 45 6 366 7926   91 47% 14 12975 880 66%
c s  0.36  7 45 6 366 7926   89 47% 14 12975 880 66%
c 
c  seconds  reductions  redundant   irredundant
c         MB    restarts       trail      variables
c          level   conflicts       glue       remaining
c 
c ^  0.36  7 45 6 366 7926   89 47% 14 12975 880 66%
c -  0.40  7 46 7 366 8402  502 80% 15 12975 880 66%
c I  0.52  7 43 7 367 10012 1935 81% 18 12975 880 66%
c -  0.59  8 52 8 368 10802 2372 79% 25 12975 880 66%
c -  0.85  8 60 9 370 13502 3227 78% 32 12975 880 66%
c ]  1.03  8 61 9 370 15004 4566 78% 34 12975 880 66%
c {  1.03  8 13 9 370 15004 4566 57% 9 12975 880 66%
c B  1.03  8 13 9 372 15013 4575 57% 9 12975 880 66%
c -  1.14  8 16 10 708 16502 3678 58% 11 12975 880 66%
c -  1.43  8 23 11 1537 19803 4093 64% 15 12975 880 66%
c W  1.52  8 22 11 1632 21015 4926 62% 14 12975 880 66%
c -  1.66  8 23 12 1936 23403 3806 61% 15 12975 880 66%
c s  1.68  8 23 12 1950 23455 3691 61% 15 12975 880 66%
c s  1.73  8 23 12 1950 23455 3655 61% 15 12975 880 66%
c ^  1.73  8 23 12 1950 23455 3655 61% 15 12975 880 66%
c -  2.05  9 26 13 2892 27306 5257 64% 16 12975 880 66%
c F  2.09  9 26 13 2978 28017 5797 64% 16 12975 880 66%
c }  2.29  9 26 13 3420 31008 8288 63% 16 12975 880 66%
c [  2.30  9 61 13 3420 31008 8288 78% 34 12975 880 66%
c -  2.34  9 59 14 3420 31507 4802 78% 33 12975 880 66%
c 
c  seconds  reductions     redundant   irredundant
c         MB     restarts         trail      variables
c          level      conflicts       glue       remaining
c 
c -  2.68  9 53 15 3423 36007 5475 78% 30 12975 880 66%
c B  2.69  9 53 15 3423 36018 5486 78% 30 12975 880 66%
c -  3.09  8 58 16 3426 40809 5895 78% 30 12975 880 66%
c W  3.54  8 54 16 3427 45020 9874 79% 29 12975 880 66%
c -  3.64  8 53 17 3427 45909 6847 79% 29 12975 880 66%
c s  3.73  9 52 17 3428 46749 7514 79% 29 12975 880 66%
c w  3.75  9 52 17 3428 46749 7513 79% 29 12975 880 66%
c s  3.78  9 52 17 3428 46749 7505 79% 29 12975 880 66%
c ^  3.78  9 52 17 3428 46749 7505 79% 29 12975 880 66%
c -  4.24  8 48 18 3428 51309 6375 79% 28 12975 880 66%
c O  4.56  8 46 18 3429 55021 9063 79% 27 12975 880 66%
c -  4.72  9 45 19 3431 57012 6595 79% 27 12975 880 66%
c ]  5.20  9 42 19 3435 63009 11885 79% 26 12975 880 66%
c {  5.20  9 26 19 3435 63009 11885 63% 16 12975 880 66%
c -  5.21 11 26 20 3437 63012 7252 63% 16 12975 880 66%
c B  5.47 11 27 20 4189 66023 10089 65% 17 12975 880 66%
c -  5.69 11 28 21 4675 69312 7634 65% 17 12975 880 66%
c -  6.17 11 28 22 5674 75912 7760 65% 17 12975 880 66%
c s  6.24 11 27 22 5674 77808 9094 63% 17 12975 880 66%
c w  6.27 11 27 22 5674 77808 9091 63% 17 12975 880 66%
c 
c  seconds  reductions     redundant   irredundant
c         MB     restarts         trail      variables
c          level      conflicts       glue       remaining
c 
c s  6.31 11 27 22 5674 77808 9059 63% 17 12975 880 66%
c ^  6.31 11 27 22 5674 77808 9059 63% 17 12975 880 66%
c W  6.37 11 27 22 5674 78024 9185 63% 17 12975 880 66%
c -  6.52 11 25 23 5739 82814 7432 58% 16 12975 880 66%
c -  6.80 11 23 24 5832 90014 8220 53% 15 12975 880 66%
c #  6.83 11 23 24 5832 91026 8956 52% 15 12975 880 66%
c -  7.31 11 25 25 7204 97515 9741 55% 15 12975 880 66%
c B  7.58 11 23 25 7483 105027 14315 52% 14 12975 880 66%
c -  7.62 11 23 26 7552 105319 7497 52% 14 12975 880 66%
c -  8.23 11 25 27 9290 113419 10029 55% 15 12975 880 66%
c s  8.51 11 25 27 10069 116630 12282 56% 16 12975 880 66%
c w  8.54 11 25 27 10069 116630 12282 56% 16 12975 880 66%
c s  8.57 11 25 27 10069 116630 12208 56% 16 12975 880 66%
c ^  8.57 11 25 27 10069 116630 12208 56% 16 12975 880 66%
c W  8.89 11 25 27 10458 120030 14802 56% 16 12975 880 66%
c -  9.08  9 25 28 10787 121819 9902 56% 16 12975 880 66%
c }  9.47  9 26 28 11691 127010 14469 57% 16 12975 880 66%
c [  9.47  9 42 28 11691 127010 14469 79% 26 12975 880 66%
c -  9.73 10 41 29 11691 130519 10385 79% 25 12975 880 66%
c B 10.16 10 40 29 11696 136031 15201 80% 25 12975 880 66%
c 
c  seconds  reductions        redundant   irredundant
c         MB      restarts           trail      variables
c          level       conflicts         glue       remaining
c 
c - 10.47 10 39 30 11698 139521 10532 80% 25 12975 880 66%
c - 11.36 10 37 31 11699 148821 10964 80% 25 12975 880 66%
c W 11.89 10 36 31 11700 153034 14535 80% 24 12975 880 66%
c - 12.39 11 45 32 11700 158422 12435 80% 25 12975 880 66%
c s 12.87 11 51 32 11700 163216 16810 80% 26 12975 880 66%
c s 12.94 11 51 32 11700 163216 16757 80% 26 12975 880 66%
c - 13.51 12 50 33 11701 168322 13112 80% 26 12975 880 66%
c I 13.75 12 49 33 11703 171035 15541 80% 26 12975 880 66%
c - 14.76 13 56 34 11707 178523 12770 79% 30 12975 880 66%
c - 16.39 14 60 35 11714 189023 13454 79% 34 12975 880 66%
c B 16.55 14 60 35 11714 190036 14362 79% 35 12975 880 66%
c - 17.65 13 61 36 11715 199824 13857 79% 33 12975 880 66%
c W 19.16 13 57 36 11722 210038 23013 79% 32 12975 880 66%
c - 19.30 15 57 37 11722 210925 14468 79% 32 12975 880 66%
c - 20.69 15 53 38 11729 222325 14359 79% 31 12975 880 66%
c O 21.63 15 50 38 11730 231039 21867 79% 30 12975 880 66%
c - 21.90 15 50 39 11730 234026 15407 79% 30 12975 880 66%
c - 23.12 15 47 40 11731 246026 13485 79% 29 12975 880 66%
c B 23.84 15 45 40 11732 253042 19215 79% 28 12975 880 66%
c ] 24.02 15 45 40 11732 255012 21053 79% 28 12975 880 66%
c 
c  seconds  reductions        redundant   irredundant
c         MB      restarts           trail      variables
c          level       conflicts         glue       remaining
c 
c { 24.02 15 26 40 11732 255012 21053 57% 16 12975 880 66%
c - 24.19 15 25 41 11942 258326 14136 56% 16 12975 880 66%
c - 25.15 15 26 42 14096 270926 14651 57% 16 12975 880 66%
c F 25.46 15 26 42 14666 276044 18850 57% 16 12975 880 66%
c - 25.86 15 25 43 15343 283826 13588 56% 16 12975 880 66%
c - 26.28 15 23 44 15374 297026 12936 51% 15 12975 880 66%
c B 26.39 15 23 44 15374 300048 14759 50% 14 12975 880 66%
c - 26.84 15 22 45 15949 310527 14020 49% 14 12975 880 66%
c - 27.31 15 20 46 15955 324327 13825 45% 13 12975 880 66%
c W 27.55 15 20 46 15955 325049 14320 45% 13 12975 880 66%
c - 28.36 15 19 47 16335 338428 14668 43% 13 12975 880 66%
c # 28.94 15 19 47 17486 351053 23616 43% 13 12975 880 66%
c - 29.13 15 19 48 17863 352828 16974 44% 13 12975 880 66%
c - 30.27 15 20 49 20230 367529 17328 46% 13 12975 880 66%
c B 30.65 15 19 49 20263 378054 24376 44% 13 12975 880 66%
c - 30.87 15 19 50 20435 382529 15124 43% 13 12975 880 66%
c - 31.65 15 19 51 21617 397833 15591 43% 13 12975 880 66%
c W 32.21 15 19 51 21617 406055 21082 41% 13 12975 880 66%
c - 32.62 15 18 52 22053 413434 15420 41% 12 12975 880 66%
c - 33.60 15 19 53 24118 429334 17799 43% 13 12975 880 66%
c 
c  seconds  reductions        redundant   irredundant
c         MB      restarts           trail      variables
c          level       conflicts         glue       remaining
c 
c F 34.09 15 20 53 25305 435056 22740 44% 13 12975 880 66%
c - 34.41 15 19 54 25311 445534 17172 43% 13 12975 880 66%
c s 34.43 15 19 54 25311 445534 13929 43% 13 12975 880 66%
c w 34.47 15 19 54 25311 445534 13928 43% 13 12975 880 66%
c - 35.28 15 18 55 25727 462035 16562 41% 12 12975 880 66%
c B 35.53 15 19 55 26398 465060 19248 42% 13 12975 880 66%
c - 36.07 15 18 56 26910 478836 17721 41% 12 12975 880 66%
c - 36.74 15 17 57 26937 495939 15757 39% 12 12975 880 66%
c W 37.05 15 17 57 26937 496063 15830 39% 12 12975 880 66%
c } 37.89 15 17 57 28494 511012 27114 40% 12 12975 880 66%
c [ 37.89 15 45 57 28494 511012 27114 79% 28 12975 880 66%
c - 37.98 15 44 58 28494 513340 19090 78% 28 12975 880 66%
c W 39.32 15 46 58 28494 528067 31242 74% 27 12975 880 66%
c - 39.65 17 46 59 28494 531040 21099 75% 27 12975 880 66%
c - 42.05 21 47 60 28501 549042 22569 76% 28 12975 880 66%
c I 43.91 21 46 60 28508 561071 33482 77% 28 12975 880 66%
c - 44.71 22 53 61 28509 567342 23861 76% 31 12975 880 66%
c - 47.62 23 57 62 28517 585942 23099 77% 34 12975 880 66%
c B 48.98 23 57 62 28523 595073 30932 77% 35 12975 880 66%
c - 50.39 18 59 63 28524 604842 24006 78% 35 12975 880 66%
c 
c  seconds  reductions        redundant   irredundant
c         MB      restarts           trail      variables
c          level       conflicts         glue       remaining
c 
c - 53.15 23 57 64 28526 624042 24497 78% 35 12975 880 66%
c W 54.43 23 56 64 28531 630074 29662 78% 35 12975 880 66%
c - 57.00 27 54 65 28538 643542 25059 79% 35 12975 880 66%
c - 60.98 27 52 66 28546 663343 25634 79% 34 12975 880 66%
c O 61.54 27 51 66 28547 666077 27992 79% 34 12975 880 66%
c - 64.11 27 49 67 28555 683443 26423 79% 32 12975 880 66%
c B 67.04 27 46 67 28556 703080 44991 80% 30 12975 880 66%
c - 67.23 27 46 68 28556 703844 27354 80% 30 12975 880 66%
c - 71.15 27 43 69 28557 724545 26774 80% 29 12975 880 66%
c W 74.13 27 41 69 28558 741082 41181 80% 28 12975 880 66%
c - 74.76 27 40 70 28558 745546 27692 80% 28 12975 880 66%
c - 78.44 27 37 71 28558 766846 27412 80% 26 12975 880 66%
c s 78.47 27 37 71 28558 766846 25164 80% 26 12975 880 66%
c w 78.56 27 37 71 28558 766846 25159 80% 26 12975 880 66%
c I 80.13 27 36 71 28558 780083 36135 81% 26 12975 880 66%
c - 81.23 27 44 72 28558 788447 27221 80% 28 12975 880 66%
c - 85.59 36 60 73 28562 810347 28869 80% 35 12975 880 66%
c B 87.20 36 60 73 28567 820084 37592 80% 36 12975 880 66%
c - 88.86 27 57 74 28573 832547 28111 80% 35 12975 880 66%
c - 92.73 28 52 75 28583 855048 28115 80% 32 12975 880 66%
c 
c  seconds  reductions        redundant   irredundant
c         MB      restarts           trail      variables
c          level       conflicts         glue       remaining
c 
c W 94.15 28 50 75 28587 861088 32965 80% 32 12975 880 66%
c - 96.91 28 47 76 28589 877848 28638 80% 30 12975 880 66%
c - 101.11 28 43 77 28596 900950 30056 80% 29 12975 880 66%
c O 101.54 28 43 77 28598 903091 31703 80% 28 12975 880 66%
c - 106.15 31 40 78 28607 924350 30092 80% 27 12975 880 66%
c B 109.75 31 38 78 28618 946093 48527 80% 26 12975 880 66%
c - 110.10 31 38 79 28619 948050 31248 80% 27 12975 880 66%
c - 114.58 31 36 80 28621 972051 30683 80% 26 12975 880 66%
c W 118.51 31 35 80 28621 990095 45491 80% 26 12975 880 66%
c - 120.31 32 35 81 28621 996352 31761 80% 26 12975 880 66%
c - 125.58 32 33 82 28631 1020953 32711 80% 25 12975 880 66%
c ] 125.91 32 33 82 28633 1023013 34521 80% 25 12975 880 66%
c { 125.91 32 17 82 28633 1023013 34521 40% 12 12975 880 66%
c # 126.66 32 17 82 29543 1035096 42271 41% 12 12975 880 66%
c - 127.34 32 18 83 30324 1045853 27985 41% 12 12975 880 66%
c - 128.29 32 16 84 30666 1071055 25231 38% 11 12975 880 66%
c B 128.77 32 16 84 31281 1081098 31849 38% 11 12975 880 66%
c - 129.34 32 16 85 31530 1096556 25399 37% 11 12975 880 66%
c - 130.42 32 15 86 31681 1122356 23935 35% 11 12975 880 66%
c s 130.45 32 15 86 31681 1122356 20806 35% 11 12975 880 66%
c 
c  seconds   reductions         redundant   irredundant
c          MB      restarts            trail      variables
c           level        conflicts         glue       remaining
c 
c w 130.50 32 15 86 31681 1122356 20802 35% 11 12975 880 66%
c W 131.28 32 14 86 31740 1128100 24239 35% 11 12975 880 66%
c - 132.15 32 14 87 31913 1148458 23036 33% 10 12975 880 66%
c - 133.60 32 15 88 34223 1174858 27915 36% 11 12975 880 66%
c F 133.63 32 15 88 34230 1176101 28724 36% 11 12975 880 66%
c - 134.54 32 14 89 34394 1201558 24585 34% 10 12975 880 66%
c B 135.64 32 14 89 35421 1225102 38835 34% 10 12975 880 66%
c - 135.82 32 14 90 35603 1228558 25678 34% 10 12975 880 66%
c - 136.86 32 13 91 35860 1255858 25358 33% 10 12975 880 66%
c W 138.56 32 13 91 36008 1275103 35896 32% 10 12975 880 66%
c - 138.89 32 13 92 36076 1283458 25534 32% 10 12975 880 66%
c - 140.00 32 12 93 36460 1311359 26010 31% 9 12975 880 66%
c # 140.46 32 12 93 36898 1326106 34255 31% 9 12975 880 66%
c - 141.33 32 13 94 38501 1339560 28619 33% 10 12975 880 66%
c - 143.11 32 15 95 41318 1368060 30775 37% 11 12975 880 66%
c B 143.82 32 16 95 42670 1378108 38596 38% 11 12975 880 66%
c - 144.68 32 15 96 43174 1396860 29341 37% 11 12975 880 66%
c - 145.98 32 15 97 43892 1425962 28220 35% 11 12975 880 66%
c W 146.95 32 14 97 43912 1431110 31478 35% 11 12975 880 66%
c - 149.29 32 17 98 47815 1455364 34457 40% 12 12975 880 66%
c 
c  seconds   reductions         redundant   irredundant
c          MB      restarts            trail      variables
c           level        conflicts         glue       remaining
c 
c - 152.14 32 19 99 52217 1485064 35070 44% 13 12975 880 66%
c F 152.14 32 19 99 52217 1485111 35109 44% 13 12975 880 66%
c - 153.58 32 18 100 52764 1515064 30958 41% 12 12975 880 66%
c s 153.60 32 18 100 52764 1515064 23572 41% 12 12975 880 66%
c w 153.67 32 18 100 52764 1515064 23564 41% 12 12975 880 66%
c B 154.61 32 16 100 53011 1540114 38934 38% 12 12975 880 66%
c - 154.90 32 16 101 53192 1545364 27239 38% 12 12975 880 66%
c - 156.62 32 16 102 54205 1575965 31472 37% 11 12975 880 66%
c W 159.43 32 17 102 56454 1596116 47157 39% 12 12975 880 66%
c - 159.92 32 16 103 56472 1606865 34637 38% 11 12975 880 66%
c - 162.51 32 16 104 58151 1638065 33687 38% 11 12975 880 66%
c # 163.36 32 15 104 58366 1653117 43240 37% 11 12975 880 66%
c - 164.05 32 15 105 58498 1669565 31723 36% 11 12975 880 66%
c - 165.80 32 14 106 58865 1701367 29313 34% 10 12975 880 66%
c B 166.42 32 13 106 58947 1711118 35139 34% 10 12975 880 66%
c - 168.17 32 14 107 60824 1733468 32834 35% 11 12975 880 66%
c - 169.75 32 14 108 61758 1765870 31745 35% 10 12975 880 66%
c W 170.96 32 14 108 61838 1770120 34204 34% 10 12975 880 66%
c - 173.34 32 16 109 65172 1798570 36136 38% 11 12975 880 66%
c F 175.24 32 15 109 65672 1830124 54267 36% 11 12975 880 66%
c 
c  seconds    reductions         redundant   irredundant
c          MB       restarts            trail      variables
c           level         conflicts         glue       remaining
c 
c - 175.39 32 15 110 65694 1831570 31281 36% 11 12975 880 66%
c - 177.37 32 15 111 66934 1864870 33039 36% 11 12975 880 66%
c B 178.55 32 14 111 67571 1891125 49012 34% 10 12975 880 66%
c - 179.23 32 15 112 68398 1898472 33700 35% 11 12975 880 66%
c - 182.09 32 15 113 70906 1932372 35635 37% 11 12975 880 66%
c W 186.91 32 18 113 75078 1953126 53546 43% 12 12975 880 66%
c - 187.72 32 18 114 75578 1966574 40380 41% 12 12975 880 66%
c s 187.75 32 18 114 75578 1966574 35257 41% 12 12975 880 66%
c w 187.87 32 18 114 75578 1966574 35249 41% 12 12975 880 66%
c - 191.05 32 19 115 79431 2001076 37075 44% 13 12975 880 66%
c # 191.90 32 19 115 80319 2016131 47551 43% 13 12975 880 66%
c - 193.75 32 19 116 82375 2035882 37816 44% 13 12975 880 66%
c } 194.10 32 18 116 82388 2047013 44451 42% 13 12975 880 66%
c [ 194.10 32 33 116 82388 2047013 44451 80% 25 12975 880 66%
c - 195.95 32 32 117 82398 2070982 36953 73% 24 12975 880 66%
c I 197.40 32 33 117 82403 2080132 45397 74% 24 12975 880 66%
c - 202.72 43 48 118 82407 2106382 46090 74% 31 12975 880 66%
c - 213.95 45 59 119 82422 2142085 48441 76% 39 12975 880 66%
c B 214.74 45 60 119 82422 2145133 51216 76% 39 12975 880 66%
c - 221.09 34 56 120 82437 2178085 44485 77% 38 12975 880 66%
c 
c  seconds    reductions         redundant   irredundant
c          MB       restarts            trail      variables
c           level         conflicts         glue       remaining
c 
c W 230.29 34 52 120 82439 2211135 72774 77% 36 12975 880 66%
c - 231.26 41 51 121 82439 2214385 45595 77% 36 12975 880 66%
c - 242.54 41 47 122 82440 2250987 46451 77% 34 12975 880 66%
c O 248.84 41 45 122 82440 2278140 69475 78% 34 12975 880 66%
c - 249.49 41 43 123 82440 2287888 44852 73% 32 12975 880 66%
c - 253.61 41 41 124 82441 2325090 43804 70% 28 12975 880 66%
c B 256.59 41 40 124 82441 2346141 62533 72% 27 12975 880 66%
c - 259.37 41 51 125 82441 2362591 47361 73% 30 12975 880 66%
c - 268.78 50 69 126 82441 2400392 50758 75% 33 12975 880 66%
c W 273.71 50 74 126 82441 2415144 64848 76% 34 12975 880 66%
c - 279.47 50 67 127 82448 2438492 51643 77% 33 12975 880 66%
c s 279.55 50 67 127 82448 2438492 46688 77% 33 12975 880 66%
c w 279.84 50 67 127 82448 2438492 46682 77% 33 12975 880 66%
c - 288.11 50 57 128 82466 2476895 49232 78% 31 12975 880 66%
c I 290.16 50 55 128 82470 2485147 56323 79% 31 12975 880 66%
c - 295.27 55 65 129 82477 2515595 50967 78% 35 12975 880 66%
c - 305.46 55 61 130 82494 2554595 50052 79% 35 12975 880 66%
c B 305.90 55 60 130 82495 2556150 51468 79% 35 12975 880 66%
c - 314.83 55 57 131 82504 2593896 49600 79% 35 12975 880 66%
c W 326.50 55 53 131 82506 2628154 80002 80% 35 12975 880 66%
c 
c  seconds    reductions         redundant   irredundant
c          MB       restarts            trail      variables
c           level         conflicts         glue       remaining
c 
c - 328.26 55 53 132 82510 2633500 51116 80% 35 12975 880 66%
c - 340.95 55 47 133 82528 2673402 49937 80% 33 12975 880 66%
c O 350.90 55 45 133 82535 2701155 71721 80% 33 12975 880 66%
c - 353.15 55 43 134 82538 2713604 51415 80% 32 12975 880 66%
c - 364.78 55 38 135 82557 2754107 49292 81% 29 12975 880 66%
c B 369.98 55 37 135 82565 2775156 67480 81% 28 12975 880 66%
c - 375.61 55 36 136 82567 2794910 50671 81% 27 12975 880 66%
c - 386.96 55 34 137 82568 2836011 54748 81% 26 12975 880 66%
c W 392.55 55 34 137 82568 2850158 67737 81% 26 12975 880 66%
c - 400.96 55 33 138 82568 2877411 54976 81% 26 12975 880 66%
c - 412.41 55 32 139 82583 2919111 54355 81% 26 12975 880 66%
c I 414.17 55 32 139 82584 2926159 60570 81% 26 12975 880 66%
c - 420.90 55 38 140 82599 2961112 55226 81% 27 12975 880 66%
c s 421.01 55 38 140 82599 2961112 54906 81% 27 12975 880 66%
c w 421.33 55 38 140 82599 2961112 54893 81% 27 12975 880 66%
c B 431.89 55 37 140 82614 3003160 91234 80% 27 12975 880 66%
c - 432.04 55 37 141 82614 3003413 54616 80% 27 12975 880 66%
c - 440.10 55 40 142 82630 3046013 52150 80% 27 12975 880 66%
c W 451.77 55 38 142 82631 3081164 81855 79% 27 12975 880 66%
c - 453.55 55 38 143 82631 3088915 54035 79% 27 12975 880 66%
c 
c  seconds    reductions         redundant   irredundant
c          MB       restarts            trail      variables
c           level         conflicts         glue       remaining
c 
c - 464.98 55 36 144 82652 3132118 52553 80% 27 12975 880 66%
c O 471.83 55 36 144 82662 3160166 77390 80% 27 12975 880 66%
c - 472.70 55 33 145 82663 3175619 52611 72% 25 12975 880 66%
c - 478.85 55 36 146 82684 3219419 52091 73% 26 12975 880 66%
c B 482.75 55 37 146 82692 3240167 70161 74% 27 12975 880 66%
c - 487.75 55 38 147 82694 3263521 55259 75% 27 12975 880 66%
c - 499.92 55 39 148 82695 3307922 58429 77% 28 12975 880 66%
c W 504.74 55 40 148 82695 3321170 70106 77% 28 12975 880 66%
c - 513.71 55 38 149 82695 3352622 59696 78% 28 12975 880 66%
c - 526.08 55 35 150 82696 3397626 61084 79% 26 12975 880 66%
c I 527.59 55 35 150 82696 3403171 66256 79% 26 12975 880 66%
c - 537.70 55 74 151 82696 3442926 61078 78% 38 12975 880 66%
c B 554.06 55 101 151 82696 3486173 102263 78% 49 12975 880 66%
c - 554.64 73 100 152 82696 3488526 63739 78% 48 12975 880 66%
c - 564.07 55 76 153 82697 3534426 57737 79% 40 12975 880 66%
c s 564.18 55 76 153 82697 3534426 55823 79% 40 12975 880 66%
c w 564.43 55 76 153 82697 3534426 55811 79% 40 12975 880 66%
c W 572.76 55 64 153 82697 3570175 88079 79% 36 12975 880 66%
c - 575.26 64 61 154 82697 3580626 60818 79% 35 12975 880 66%
c - 585.77 64 52 155 82697 3627126 62364 79% 32 12975 880 66%
c 
c  seconds    reductions         redundant   irredundant
c          MB       restarts            trail      variables
c           level         conflicts         glue       remaining
c 
c O 591.50 64 49 155 82697 3655176 88719 80% 31 12975 880 66%
c - 594.76 64 45 156 82697 3673926 63053 80% 30 12975 880 66%
c ] 599.85 64 41 156 82697 3702245 88110 80% 28 12975 880 66%
c ? 599.85 64 41 156 82697 3702245 88110 80% 28 12975 880 66%
c 
c --- [ result ] -------------------------------------------------------------
c 
c UNKNOWN
c 
c --- [ run-time profiling ] -------------------------------------------------
c 
c process time taken by individual solving procedures
c (percentage relative to process time for solving)
c 
c       593.24   98.90% search
c       493.24   82.23% stable
c        79.42   13.24% unstable
c        20.57    3.43% walk
c         6.61    1.10% simplify
c         3.23    0.54% probe
c         1.29    0.21% vivify
c         0.55    0.09% subsume
c         0.51    0.09% ternary
c         0.09    0.02% elim
c         0.01    0.00% parse
c         0.00    0.00% lucky
c   =================================
c       599.84  100.00% solve
c 
c last line shows process time for solving
c (percentage relative to total process time)
c 
c --- [ statistics ] ---------------------------------------------------------
c 
c chronological:            584117        15.78 %  of conflicts
c conflicts:               3702245      6172.01    per second
c decisions:               6325728     10545.61    per second
c eliminated:                  330        24.79 %  of all variables
c fixed:                       121         9.09 %  of all variables
c learned:                 3657085        98.78 %  per conflict
c learned_lits:          250533645       100.00 %  learned literals
c minimized:                     0         0.00 %  learned literals
c shrunken:               97590979        38.95 %  learned literals
c minishrunken:           22181160         8.85 %  learned literals
c propagations:          372446893         0.62 M  per second
c reduced:                 2837525        76.64 %  per conflict
c rephased:                     85     43555.82    interval
c restarts:                  82697        44.77    interval
c stabilizing:                   6        63.13 %  of conflicts
c subsumed:                 728909         9.91 %  of all clauses
c strengthened:              15637         0.21 %  of all clauses
c vivified:                    167         0.00 %  of all clauses
c walked:                       27    137120.19    interval
c weakened:                   8604         2.33    average size
c 
c seconds are measured in process time for solving
c 
c --- [ resources ] ----------------------------------------------------------
c 
c total process time since initialization:       599.85    seconds
c total real time since initialization:          600.00    seconds
c maximum resident set size of process:           72.75    MB
c 
c --- [ shutting down ] ------------------------------------------------------
c 
c exit 0
